93
18
73
179
998
873
943
2172
2444
2916
625
2724
3234
648
2803
1878
4354
1367
3092
5754
5957
4985
2921
1376
7888
5119
8500
967
6747
4721
13549
14686
6009
15268
11197
1838
5237
11743
18579
16144
1786
11274
18090
17386
1879
1813
8706
9041
21015
5628
23192
10635
25666
33421
40088
42426
36117
36104
42875
16061
10058
23694
48690
14947
48140
56311
44106
66670
28665
56920
60149
69040
53298
82441
30979
77562
75389
70085
84574
1846
12640
74325
93615
38596
100512
82764
112167
112470
66771
53154
68019
109275
126659
131834
77488
141897
103040
122147
59796
12665
